Gurobi Optimizer version 9.1.2 build v9.1.2rc0 (linux64)
Thread count: 36 physical cores, 72 logical processors, using up to 32 threads
Optimize a model with 12 rows, 57 columns and 590 nonzeros
Model fingerprint: 0xf32eec78
Model has 47 quadratic constraints
Coefficient statistics:
  Matrix range     [2e-05, 3e+00]
  QMatrix range    [1e+00, 1e+00]
  QLMatrix range   [1e+00, 1e+00]
  Objective range  [8e-03, 7e-01]
  Bounds range     [1e+00, 1e+00]
  RHS range        [1e+00, 1e+00]
Presolve removed 9 rows and 0 columns

Continuous model is non-convex -- solving as a MIP.

Presolve removed 9 rows and 0 columns
Presolve time: 0.00s
Presolved: 189 rows, 57 columns, 443 nonzeros
Presolved model has 47 bilinear constraint(s)
Variable types: 57 continuous, 0 integer (0 binary)

Root relaxation: objective -1.743721e+00, 44 iterations, 0.00 seconds

    Nodes    |    Current Node    |     Objective Bounds      |     Work
 Expl Unexpl |  Obj  Depth IntInf | Incumbent    BestBd   Gap | It/Node Time

     0     0   -1.74372    0   38          -   -1.74372      -     -    0s
H    0     0                       0.6147548   -1.74372   384%     -    0s
     0     0   -1.64739    0    1    0.61475   -1.64739   368%     -    0s
H    0     0                      -1.6450460   -1.64739  0.14%     -    0s
     0     0     cutoff    0        -1.64505   -1.64505  0.00%     -    0s

Cutting planes:
  RLT: 25
  BQP: 3

Explored 1 nodes (76 simplex iterations) in 0.01 seconds
Thread count was 32 (of 72 available processors)

Solution count 2: -1.64505 0.614755 
No other solutions better than -1.64505

Optimal solution found (tolerance 1.00e-04)
Best objective -1.645045978473e+00, best bound -1.645045978473e+00, gap 0.0000%

User-callback calls 77, time in user-callback 0.00 sec
Gurobi Optimizer version 9.1.2 build v9.1.2rc0 (linux64)
Thread count: 36 physical cores, 72 logical processors, using up to 32 threads
Optimize a model with 60 rows, 312 columns and 16100 nonzeros
Model fingerprint: 0x5391d8c1
Model has 262 quadratic constraints
Coefficient statistics:
  Matrix range     [4e-07, 7e+00]
  QMatrix range    [1e+00, 1e+00]
  QLMatrix range   [1e+00, 1e+00]
  Objective range  [4e-03, 1e+00]
  Bounds range     [1e+00, 1e+00]
  RHS range        [1e+00, 1e+00]
Presolve removed 17 rows and 0 columns

Continuous model is non-convex -- solving as a MIP.

Presolve removed 17 rows and 0 columns
Presolve time: 0.01s
Presolved: 1079 rows, 312 columns, 12823 nonzeros
Presolved model has 262 bilinear constraint(s)
Variable types: 312 continuous, 0 integer (0 binary)

Root relaxation: objective -2.384411e+01, 337 iterations, 0.02 seconds

    Nodes    |    Current Node    |     Objective Bounds      |     Work
 Expl Unexpl |  Obj  Depth IntInf | Incumbent    BestBd   Gap | It/Node Time

     0     0  -23.84411    0  176          -  -23.84411      -     -    0s
     0     0  -22.85302    0   78          -  -22.85302      -     -    0s
     0     0  -22.82665    0   69          -  -22.82665      -     -    0s
     0     0  -22.74442    0   74          -  -22.74442      -     -    0s
     0     0  -22.74029    0   74          -  -22.74029      -     -    0s
     0     0  -22.73053    0   74          -  -22.73053      -     -    0s
     0     0  -22.72677    0   74          -  -22.72677      -     -    0s
     0     0  -22.72279    0   74          -  -22.72279      -     -    0s
     0     0  -22.72257    0   74          -  -22.72257      -     -    0s
     0     0  -22.71499    0   74          -  -22.71499      -     -    0s
     0     0  -22.71349    0   74          -  -22.71349      -     -    0s
     0     0  -22.71344    0   74          -  -22.71344      -     -    0s
     0     0  -22.71319    0   74          -  -22.71319      -     -    0s
     0     0  -22.71309    0   74          -  -22.71309      -     -    0s
     0     0  -22.71112    0   74          -  -22.71112      -     -    0s
     0     0  -22.71100    0   74          -  -22.71100      -     -    0s
     0     0  -22.71095    0   74          -  -22.71095      -     -    0s
     0     0  -22.71093    0   74          -  -22.71093      -     -    0s
H    0     0                     -20.6030129  -22.71093  10.2%     -    0s
     0     2  -22.71093    0   74  -20.60301  -22.71093  10.2%     -    0s
* 1652  1508              61     -21.1088786  -22.03524  4.39%  51.7    1s
* 2246  1870              60     -21.4336681  -22.03524  2.81%  47.6    1s
* 3337  1887              57     -21.4752474  -21.84211  1.71%  41.7    2s
* 7853   952              55     -21.4752796  -21.80275  1.52%  40.3    4s
* 7854   952              55     -21.4753120  -21.80275  1.52%  40.3    4s
* 7963   952              72     -21.4753332  -21.80275  1.52%  40.0    4s
* 7965   952              72     -21.4757846  -21.80275  1.52%  40.0    4s
* 8230  1040              74     -21.4761883  -21.77377  1.39%  39.5    4s
* 8235  1040              74     -21.4761965  -21.77377  1.39%  39.4    4s
* 8305  1040              94     -21.4824241  -21.77377  1.36%  39.3    4s
* 9082  1248              98     -21.4938519  -21.77377  1.30%  38.0    4s
* 9083  1248              98     -21.4938662  -21.77377  1.30%  38.0    4s
  9520  1373     cutoff   30       -21.49387  -21.70116  0.96%  37.4    5s
* 9803  1373             105     -21.4968754  -21.70116  0.95%  37.1    5s
* 9804  1373             105     -21.4968758  -21.70116  0.95%  37.1    5s
* 9808  1373             106     -21.4968820  -21.70116  0.95%  37.1    5s
* 9809  1373             106     -21.4968825  -21.70116  0.95%  37.1    5s
* 9811  1373             104     -21.4968827  -21.70116  0.95%  37.1    5s
*10137  1478             104     -21.4968832  -21.70116  0.95%  36.7    5s
*10215  1627              75     -21.5451137  -21.70116  0.72%  36.6    5s
*12035  1630              78     -21.5452834  -21.62902  0.39%  34.5    5s
*12036  1630              78     -21.5452848  -21.62902  0.39%  34.5    5s
*12527  1730              72     -21.5455264  -21.62902  0.39%  33.8    5s
*12528  1730              72     -21.5455279  -21.62902  0.39%  33.8    5s
*12813  1742              85     -21.5457715  -21.62902  0.39%  33.4    5s
*12814  1742              85     -21.5458640  -21.62902  0.39%  33.4    5s
*13013  1742              77     -21.5465669  -21.62902  0.38%  33.1    5s
*13230  1742              75     -21.5474554  -21.62902  0.38%  32.8    5s
*13620  1761              79     -21.5483079  -21.60855  0.28%  32.3    5s
*13636  1761              75     -21.5493501  -21.60855  0.27%  32.2    5s
*14884  1732              65     -21.5494214  -21.60766  0.27%  30.8    6s
*15032  1785              72     -21.5500074  -21.57879  0.13%  30.7    6s
*15642  1826              74     -21.5500126  -21.57458  0.11%  29.9    6s
*15643  1826              74     -21.5500126  -21.57458  0.11%  29.9    6s
*15644  1826              73     -21.5500127  -21.57458  0.11%  29.9    6s
*15760  1826              65     -21.5500247  -21.56995  0.09%  29.8    6s
*15858  1826              68     -21.5501274  -21.56958  0.09%  29.7    6s
*15859  1826              68     -21.5501292  -21.56958  0.09%  29.7    6s
*15972  1826              68     -21.5503179  -21.56958  0.09%  29.5    6s
*16947  1848              70     -21.5536010  -21.56695  0.06%  28.4    6s
*17087  1614              60     -21.5538991  -21.56527  0.05%  28.3    6s
*18152  1674              73     -21.5541863  -21.56162  0.03%  27.1    6s
*19272  1648              61     -21.5542184  -21.56010  0.03%  26.0    6s
*20183  1739              73     -21.5544446  -21.55761  0.01%  25.1    6s
*20186  1739              73     -21.5544536  -21.55761  0.01%  25.1    6s
*20193  1739              76     -21.5544788  -21.55761  0.01%  25.1    6s
*20866  1539              75     -21.5544835  -21.55657  0.01%  24.5    7s
*21597  1539              78     -21.5544859  -21.55657  0.01%  23.8    7s
*21599  1539              76     -21.5544879  -21.55657  0.01%  23.8    7s
*21822  1539              74     -21.5544881  -21.55657  0.01%  23.6    7s

Explored 21826 nodes (515655 simplex iterations) in 7.10 seconds
Thread count was 32 (of 72 available processors)

Solution count 10: -21.5545 -21.5545 -21.5545 ... -21.5539

Optimal solution found (tolerance 1.00e-04)
Best objective -2.155448813604e+01, best bound -2.155656729621e+01, gap 0.0096%

User-callback calls 44646, time in user-callback 0.01 sec



objective value: -21.55448813603649
objective bound: -21.55656729620959
x_opt: [1.0, 1.0, 0.0, 0.4448294765011538, 0.0, 0.0, 1.0, 0.0, 0.0, 0.0, 1.0, 0.0, 1.0, 1.0, 0.25703752822533976, 1.0, 0.0, 1.0, 0.0, 0.0, 1.0, 0.6341433169295512, 0.0, 0.7948018913489633, 0.0, 0.7550522073149738, 0.0, 1.0, 0.0, 0.0, 1.0, 0.8661195934856364, 0.0, 0.39804328031502473, 1.0, 1.0, 0.06726480465259572, 1.0, 0.0, 0.843876423077463, 1.0, 0.0, 1.0, 0.006241974336679872, 0.0, 0.09156180033984884, 0.8747551898899819, 0.01851118328705695, 1.0, 0.1603286826262559]
GUROBI solution time: 7.104791164398193




